param n := 45;
param m := 7;


param p :=
1	235
2	410
3	295
4	235
5	300
6	295
7	185
8	275
9	220
10	60
11	80
12	70
13	60
14	60
15	70
16	60
17	80
18	65
19	70
20	65
21	60
22	70
23	75
24	65
25	60
26	80
27	110
28	40
29	160
30	180
31	200
32	145
33	80
34	90
35	115
36	140
37	65
38	60
39	60
40	95
41	95
42	85
43	130
44	80
45	75
;
